3773
20784
17840
15001
5771
11557
22572
17893
23629
31292
3797
17679
28162
18500
3297
5224
29702
14308
30931
271
13886
19001
30450
11616
11474
15760
29945
9291
21562
26974
12982
25256
1415
32016
21608
4210
18658
8334
24144
32587
18769
6891
16134
21537
25061
13527
16063
5578
1525
9385
24999
22267
2868
7462
10704
22323
1691
20146
14353
7370
20485
32677
23140
5625
5919
10204
27857
13833
5092
30111
14200
12378
30930
20332
23802
11015
26713
24179
30228
13770
5476
4805
20481
9674
10320
14347
32608
31229
486
22167
4072
289
23067
18496
32273
13685
11930
2878
14545
18104
